c read Graph
c width = 47
c time = 30 ms
c width = 7
c time = 56 ms
c width = 6
c time = 524 ms
c width = 6
c time = 4944 ms
s td 54 7 60
b 1 1 2 11
b 2 2 3 11 12
b 3 8 9 19 20
b 4 3 11 12 21
b 5 8 19 20 30
b 6 31 41 42 52
b 7 40 49 50 59
b 8 31 42 52 53
b 9 40 49 58 59
b 10 3 4 5 14
b 11 3 5 14 23 31 32
b 12 3 14 22 23 31 32
b 13 3 13 14 22 23 31
b 14 3 13 21 22 31
b 15 3 12 13 21 22
b 16 5 6 7 16
b 17 5 7 16 18 27 29 40
b 18 5 16 18 27 29 38 40
b 19 5 16 27 29 38 39 40
b 20 5 16 27 38 39 40 49
b 21 5 16 27 38 40 49 58
b 22 5 16 27 38 48 49 58
b 23 5 16 27 38 47 48 58
b 24 5 16 27 36 38 47 58
b 25 5 16 25 27 36 47 58
b 26 5 14 16 25 36 47 58
b 27 5 14 25 36 47 57 58
b 28 5 14 25 36 47 56 57
b 29 5 14 25 36 45 47 56
b 30 5 14 25 34 36 45 56
b 31 5 14 23 25 34 45 56
b 32 5 14 23 34 45 54 56
b 33 5 14 23 34 43 45 54
b 34 5 14 23 32 34 43 54
b 35 5 14 23 31 32 43 54
b 36 27 36 37 38 47
b 37 7 18 29 30 40
b 38 7 8 18 29 30
b 39 8 18 19 29 30
b 40 18 27 28 29 38
b 41 7 16 17 18 27
b 42 16 25 26 27 36
b 43 36 45 46 47 56
b 44 5 14 15 16 25
b 45 25 34 35 36 45
b 46 14 23 24 25 34
b 47 45 54 55 56
b 48 34 43 44 45 54
b 49 23 32 33 34 43
b 50 31 32 43 53 54
b 51 31 32 42 43 53
b 52 50 59 60
b 53 41 51 52
b 54 9 10 20
1 2
2 4
3 54
3 5
4 15
5 39
6 53
6 8
7 52
7 9
8 51
9 21
10 11
11 35
11 12
12 13
13 14
14 15
16 17
17 41
17 37
17 18
18 40
18 19
19 20
20 21
21 22
22 23
23 24
24 36
24 25
25 42
25 26
26 44
26 27
27 28
28 29
29 43
29 30
30 45
30 31
31 46
31 32
32 47
32 33
33 48
33 34
34 49
34 35
35 50
37 38
38 39
50 51
